general:
System = metal 
ISPIN=2 # Spin polarisation on
ICHARG=1
ISIF=0
IBRION=-1 # Conj gradient opimtisation
NSW=1
EDIFFG = -0.01
ENCUT = 450 eV
PREC= Normal
ISMEAR = 0; SIGMA = 0.05  #-5 for accurate total energy and DOS 0 for large cell 1 for metal
LREAL=A
VOSKOWN =0    # 0 for PBE 1 for PW91
NELM=120
#AMIX = 0.2
#BMIX = 0.0001
IALGO=48
LCHARG = T
LWAVE = T
ISYM = 2 # Symmetry on 
#NCORE=10
#NSIM=4
IVDW=10
LWANNIER90 = T
LWRITE_UNK = T
NBANDS = 188
