 num_wann        =   188  ! set to NBANDS by VASP

 search_shells   =   600  ! needed for lang aspect-ratio cells

begin projections
C:sp2:z=0,1,0
C:pz:z=0,1,0
O:p
end projections

begin unit_cell_cart
     4.2662001     0.0000000     0.0000000
     0.0000000    39.4095001     0.0000000
    -1.4220647     0.0000000     3.1810997
end unit_cell_cart

begin atoms_cart
C        4.2650326     0.0003085     0.0000000
C        1.4216995     0.0003111     0.0000000
C        2.1319326     1.2304896     0.0000000
C        3.5547995     1.2304869     0.0000000
C        4.2657674     2.4615698     0.0000000
C        1.4206951     2.4614809     0.0000000
C        2.1316846     3.6926155     0.0000000
C        3.5548081     3.6926833     0.0000000
C        4.2650351     4.9232065     0.0000000
C        1.4217763     4.9232828     0.0000000
C        2.1328379     6.1547595     0.0000000
C        3.5542981     6.1547237     0.0000000
C        4.2648416     7.3860505     0.0000000
C        1.4225955     7.3861867     0.0000000
C        2.1320978     8.6162855     0.0000000
C        3.5554655     8.6161828     0.0000000
C        4.2654731     9.8484664     0.0000000
C        1.4220810     9.8485054     0.0000000
C        2.1298649    11.0807986     0.0000000
C        3.5576020    11.0807430     0.0000000
C        0.0092352    12.3016611     0.0000000
C        1.4117454    12.3016137     0.0000000
C        2.1336063    13.5289477     0.0000000
C        3.5532198    13.5289749     0.0000000
C        0.0005062    27.1113500     0.0000000
C        1.4201198    27.1113227     0.0000000
C        2.1423352    28.3385978     0.0000000
C        3.5448454    28.3386453     0.0000000
C        4.2629650    29.5594616     0.0000000
C        1.4245020    29.5595172     0.0000000
C        2.1323731    30.7918313     0.0000000
C        3.5551810    30.7917923     0.0000000
C        4.2651979    32.0239728     0.0000000
C        1.4223655    32.0240755     0.0000000
C        2.1317415    33.2542084     0.0000000
C        3.5556955    33.2540722     0.0000000
C        4.2659379    34.4855001     0.0000000
C        1.4211980    34.4855359     0.0000000
C        2.1319350    35.7170530     0.0000000
C        3.5548763    35.7169766     0.0000000
C        4.2647847    36.9476818     0.0000000
C        1.4217081    36.9476141     0.0000000
C        2.1326674    38.1787291     0.0000000
C        3.5537951    38.1788180     0.0000000
O        3.9625876    14.7461299     0.0000000
O        1.7239164    14.7459960     0.0000000
O        1.8294878    25.8941678     0.0000000
O        3.8570207    25.8943017     0.0000000
end atoms_cart

mp_grid =     6     1     2

begin kpoints
      0.000000000000      0.000000000000      0.000000000000
      0.166666666667      0.000000000000      0.000000000000
      0.333333333333      0.000000000000      0.000000000000
      0.500000000000      0.000000000000      0.000000000000
      0.000000000000      0.000000000000      0.500000000000
      0.166666666667      0.000000000000      0.500000000000
      0.333333333333      0.000000000000      0.500000000000
      0.500000000000      0.000000000000      0.500000000000
     -0.166666666667      0.000000000000     -0.000000000000
     -0.333333333333      0.000000000000     -0.000000000000
     -0.166666666667      0.000000000000     -0.500000000000
     -0.333333333333      0.000000000000     -0.500000000000
end kpoints

wannier_plot = T

bands_plot = T

bands_num_points = 51

begin kpoint_path
  G 0.0 0.0 0.0 A 0.5 0.5 0.0 
  A 0.5 0.5 0.0 X 0.0 0.5 0.0
  X 0.0 0.5 0.0 Z 0.5 0.0 0.0
end kpoint_path

bands_plot_project = 1-132

