KPT-Resolved Value to Generate K-Mesh: 0.040
0
Gamma
   6   1   2
0.0  0.0  0.0
