# Bulk supercell                        
   1.00000000000000     
     4.2662000655999996    0.0000000000000000    0.0000000000000000
     0.0000000000000000   39.4095001220999990    0.0000000000000000
    -1.4220647142000000    0.0000000000000000    3.1810996981000002
   C    O 
    44     4
Selective dynamics
Direct
 -0.0002736481211458  0.0000078275345083  0.0000000000000000   T   T   F
  0.3332472584069070  0.0000078942799259  0.0000000000000000   T   T   F
  0.4997263518788541  0.0312231714654934  0.0000000000000000   T   T   F
  0.8332472584069068  0.0312231047200758  0.0000000000000000   T   T   F
 -0.0001014168744036  0.0624613291800059  0.0000000000000000   T   T   F
  0.3330118285198363  0.0624590739500144  0.0000000000000000   T   T   F
  0.4996682292842126  0.0936986137723189  0.0000000000000000   T   T   F
  0.8332492695634677  0.0937003324585770  0.0000000000000000   T   T   F
 -0.0002730764744639  0.1249243583008650  0.0000000000000000   T   T   F
  0.3332652622568220  0.1249262949244842  0.0000000000000000   T   T   F
  0.4999385505118116  0.1561745122047214  0.0000000000000000   T   T   F
  0.8331297216598411  0.1561736039020888  0.0000000000000000   T   T   F
 -0.0003184295834439  0.1874180193790070  0.0000000000000000   T   T   F
  0.3334572864150926  0.1874214767165860  0.0000000000000000   T   T   F
  0.4997650836798817  0.2186347331624242  0.0000000000000000   T   T   F
  0.8334033734539188  0.2186321262223164  0.0000000000000000   T   T   F
 -0.0001703970621875  0.2499008195680992  0.0000000000000000   T   T   F
  0.3333366766005838  0.2499018091765112  0.0000000000000000   T   T   F
  0.4992416899505160  0.2811707463004427  0.0000000000000000   T   T   F
  0.8339041678281589  0.2811693352113084  0.0000000000000000   T   T   F
  0.0021647315594320  0.3121496355837441  0.0000000000000000   T   T   F
  0.3309140095364829  0.3121484322536262  0.0000000000000000   T   T   F
  0.5001186625047854  0.3432915321858042  0.0000000000000000   T   T   F
  0.8328769837052966  0.3432922234515123  0.0000000000000000   T   T   F
  0.0001186625047850  0.6879394538141931  0.0000000000000000   T   T   F
  0.3328769837052970  0.6879387625484854  0.0000000000000000   T   T   F
  0.5021647315594322  0.7190803674162531  0.0000000000000000   T   T   F
  0.8309140095364828  0.7190815707463714  0.0000000000000000   T   T   F
 -0.0007583100494840  0.7500592866995571  0.0000000000000000   T   T   F
  0.3339041678281587  0.7500606977886916  0.0000000000000000   T   T   F
  0.4998296029378125  0.7813301664318981  0.0000000000000000   T   T   F
  0.8333366766005837  0.7813291768234860  0.0000000000000000   T   T   F
 -0.0002349163201181  0.8125952548375758  0.0000000000000000   T   T   F
  0.3334033734539184  0.8125978617776840  0.0000000000000000   T   T   F
  0.4996815704165559  0.8438119826209937  0.0000000000000000   T   T   F
  0.8334572864150929  0.8438085252834143  0.0000000000000000   T   T   F
 -0.0000614494881886  0.8750555057952739  0.0000000000000000   T   T   F
  0.3331297216598412  0.8750564140979066  0.0000000000000000   T   T   F
  0.4997269235255364  0.9063056586991403  0.0000000000000000   T   T   F
  0.8332652622568211  0.9063037220755213  0.0000000000000000   T   T   F
 -0.0003317707157874  0.9375323642276775  0.0000000000000000   T   T   F
  0.3332492695634685  0.9375306455414194  0.0000000000000000   T   T   F
  0.4998985831255963  0.9687696868199938  0.0000000000000000   T   T   F
  0.8330118285198369  0.9687719420499851  0.0000000000000000   T   T   F
  0.9288330360643018  0.3741770346602944  0.0000000000000000   T   T   F
  0.4040870946142786  0.3741736368170919  0.0000000000000000   T   T   F
  0.4288330950643029  0.6570539513397029  0.0000000000000000   T   T   F
  0.9040881076142737  0.6570573491829054  0.0000000000000000   T   T   F
 
  0.00000000E+00  0.00000000E+00  0.00000000E+00
  0.00000000E+00  0.00000000E+00  0.00000000E+00
  0.00000000E+00  0.00000000E+00  0.00000000E+00
  0.00000000E+00  0.00000000E+00  0.00000000E+00
  0.00000000E+00  0.00000000E+00  0.00000000E+00
  0.00000000E+00  0.00000000E+00  0.00000000E+00
  0.00000000E+00  0.00000000E+00  0.00000000E+00
  0.00000000E+00  0.00000000E+00  0.00000000E+00
  0.00000000E+00  0.00000000E+00  0.00000000E+00
  0.00000000E+00  0.00000000E+00  0.00000000E+00
  0.00000000E+00  0.00000000E+00  0.00000000E+00
  0.00000000E+00  0.00000000E+00  0.00000000E+00
  0.00000000E+00  0.00000000E+00  0.00000000E+00
  0.00000000E+00  0.00000000E+00  0.00000000E+00
  0.00000000E+00  0.00000000E+00  0.00000000E+00
  0.00000000E+00  0.00000000E+00  0.00000000E+00
  0.00000000E+00  0.00000000E+00  0.00000000E+00
  0.00000000E+00  0.00000000E+00  0.00000000E+00
  0.00000000E+00  0.00000000E+00  0.00000000E+00
  0.00000000E+00  0.00000000E+00  0.00000000E+00
  0.00000000E+00  0.00000000E+00  0.00000000E+00
  0.00000000E+00  0.00000000E+00  0.00000000E+00
  0.00000000E+00  0.00000000E+00  0.00000000E+00
  0.00000000E+00  0.00000000E+00  0.00000000E+00
  0.00000000E+00  0.00000000E+00  0.00000000E+00
  0.00000000E+00  0.00000000E+00  0.00000000E+00
  0.00000000E+00  0.00000000E+00  0.00000000E+00
  0.00000000E+00  0.00000000E+00  0.00000000E+00
  0.00000000E+00  0.00000000E+00  0.00000000E+00
  0.00000000E+00  0.00000000E+00  0.00000000E+00
  0.00000000E+00  0.00000000E+00  0.00000000E+00
  0.00000000E+00  0.00000000E+00  0.00000000E+00
  0.00000000E+00  0.00000000E+00  0.00000000E+00
  0.00000000E+00  0.00000000E+00  0.00000000E+00
  0.00000000E+00  0.00000000E+00  0.00000000E+00
  0.00000000E+00  0.00000000E+00  0.00000000E+00
  0.00000000E+00  0.00000000E+00  0.00000000E+00
  0.00000000E+00  0.00000000E+00  0.00000000E+00
  0.00000000E+00  0.00000000E+00  0.00000000E+00
  0.00000000E+00  0.00000000E+00  0.00000000E+00
  0.00000000E+00  0.00000000E+00  0.00000000E+00
  0.00000000E+00  0.00000000E+00  0.00000000E+00
  0.00000000E+00  0.00000000E+00  0.00000000E+00
  0.00000000E+00  0.00000000E+00  0.00000000E+00
  0.00000000E+00  0.00000000E+00  0.00000000E+00
  0.00000000E+00  0.00000000E+00  0.00000000E+00
  0.00000000E+00  0.00000000E+00  0.00000000E+00
  0.00000000E+00  0.00000000E+00  0.00000000E+00
