# Bulk supercell                        
1.0
        4.2662000656         0.0000000000         0.0000000000
        0.0000000000        39.4095001221         0.0000000000
       -1.4220647142         0.0000000000         3.1810996981
    C    O
   44    4
Selective Dynamics
Direct
     0.000         0.000000000         0.00000000 T T F
     0.333         0.000000000         0.00000000 T T F 
     0.500         0.031230999         0.00000000 T T F
     0.833         0.031230999         0.00000000 T T F
     0.000         0.062501997         0.00000000 T T F
     0.333         0.062501997         0.00000000 T T F
     0.500         0.093782000         0.00000000 T T F
     0.833         0.093782000         0.00000000 T T F
     0.000         0.125006005         0.00000000 T T F
     0.333         0.125006005         0.00000000 T T F
     0.500         0.156268999         0.00000000 T T F
     0.833         0.156268999         0.00000000 T T F
     0.000         0.187561005         0.00000000 T T F
     0.333         0.187561005         0.00000000 T T F
     0.500         0.218767002         0.00000000 T T F
     0.833         0.218767002         0.00000000 T T F
     0.000         0.250009000         0.00000000 T T F
     0.333         0.250009000         0.00000000 T T F
     0.500         0.281345010         0.00000000 T T F
     0.833         0.281345010         0.00000000 T T F
     0.000         0.312496990         0.00000000 T T F
     0.333         0.312496990         0.00000000 T T F
     0.500         0.343553007         0.00000000 T T F
     0.833         0.343553007         0.00000000 T T F
     0.000         0.687677979         0.00000000 T T F
     0.333         0.687677979         0.00000000 T T F
     0.500         0.718733013         0.00000000 T T F
     0.833         0.718733013         0.00000000 T T F
     0.000         0.749885023         0.00000000 T T F
     0.333         0.749885023         0.00000000 T T F
     0.500         0.781221986         0.00000000 T T F
     0.833         0.781221986         0.00000000 T T F
     0.000         0.812462986         0.00000000 T T F
     0.333         0.812462986         0.00000000 T T F
     0.500         0.843668997         0.00000000 T T F
     0.833         0.843668997         0.00000000 T T F
     0.000         0.874961019         0.00000000 T T F
     0.333         0.874961019         0.00000000 T T F
     0.500         0.906224012         0.00000000 T T F
     0.833         0.906224012         0.00000000 T T F
     0.000         0.937448978         0.00000000 T T F
     0.333         0.937448978         0.00000000 T T F
     0.500         0.968729019         0.00000000 T T F
     0.833         0.968729019         0.00000000 T T F
     0.987625957         0.374323010         0.00000000 T T F
     0.345849991         0.374323010         0.00000000 T T F
     0.487626016         0.656907976         0.00000000 T T F
     0.845851004         0.656907976         0.00000000 T T F
