# Bulk supercell                        
   1.00000000000000     
     4.2662000000000004    0.0000000000000000    0.0000000000000000
     0.0000000000000000   39.4095000000000013    0.0000000000000000
     0.0000000000000000    0.0000000000000000    6.3621999999999996
   C    O 
    88     8
Selective dynamics
Direct
 -0.0026920318684079  0.0627002418378035  0.0000000000000000   T   T   F
 -0.0036882191628098  0.1249010053553632  0.0000000000000000   T   T   F
 -0.0041683765041893  0.1874768404014168  0.0000000000000000   T   T   F
 -0.0038113340494859  0.2499727865747307  0.0000000000000000   T   T   F
 -0.0041845263888877  0.3124602967778454  0.0000000000000000   T   T   F
 -0.0041692527780016  0.3750110297617776  0.0000000000000000   T   T   F
 -0.0039425417923901  0.4375132295289358  0.0000000000000000   T   T   F
 -0.0042111011831480  0.5000152193791892  0.0000000000000000   T   T   F
 -0.0040516888542457  0.5625688495807329  0.0000000000000000   T   T   F
 -0.0032682897520248  0.6250172272532878  0.0000000000000000   T   T   F
 -0.0052847893153971  0.6875105804540567  0.0000000000000000   T   T   F
  0.3291717922091045  0.0626748713126453  0.0000000000000000   T   T   F
  0.3294657744634853  0.1248895859765284  0.0000000000000000   T   T   F
  0.3296725469733739  0.1874696329407297  0.0000000000000000   T   T   F
  0.3290204410804633  0.2499700124153474  0.0000000000000000   T   T   F
  0.3292667195542469  0.3124577980913992  0.0000000000000000   T   T   F
  0.3293007555199706  0.3750093342620607  0.0000000000000000   T   T   F
  0.3290263128184658  0.4375104906610306  0.0000000000000000   T   T   F
  0.3293399376650859  0.5000172448312252  0.0000000000000000   T   T   F
  0.3294239679683622  0.5625740537479736  0.0000000000000000   T   T   F
  0.3289327625159993  0.6250204452172785  0.0000000000000000   T   T   F
  0.3311618014690136  0.6875042207055394  0.0000000000000000   T   T   F
  0.4947160611294303  0.0937401039824363  0.0000000000000000   T   T   F
  0.4967325606928025  0.1562334571832058  0.0000000000000000   T   T   F
  0.4959491615905817  0.2186818348557531  0.0000000000000000   T   T   F
  0.4957897492616795  0.2812354650573040  0.0000000000000000   T   T   F
  0.4960583086524374  0.3437374549075574  0.0000000000000000   T   T   F
  0.4958315976668258  0.4062396546747156  0.0000000000000000   T   T   F
  0.4958163240559396  0.4687903876586479  0.0000000000000000   T   T   F
  0.4961895163953416  0.5312778978617624  0.0000000000000000   T   T   F
  0.4958324739406380  0.5937738440350695  0.0000000000000000   T   T   F
  0.4963126312820177  0.6563496790811298  0.0000000000000000   T   T   F
  0.4973088185764195  0.7185504425986901  0.0000000000000000   T   T   F
  0.8311626519138412  0.0937464637309538  0.0000000000000000   T   T   F
  0.8289336129608271  0.1562302392192148  0.0000000000000000   T   T   F
  0.8294248184131900  0.2186766306885123  0.0000000000000000   T   T   F
  0.8293407881099135  0.2812334396052681  0.0000000000000000   T   T   F
  0.8290271632632934  0.3437401937754627  0.0000000000000000   T   T   F
  0.8293016059647983  0.4062413501744326  0.0000000000000000   T   T   F
  0.8292675699990744  0.4687928863450941  0.0000000000000000   T   T   F
  0.8290212915252908  0.5312806720211461  0.0000000000000000   T   T   F
  0.8296733974182012  0.5937810514957563  0.0000000000000000   T   T   F
  0.8294666249083130  0.6563610984599648  0.0000000000000000   T   T   F
  0.8291726426539318  0.7185758131238478  0.0000000000000000   T   T   F
  0.0026920318684079  0.0627002418378035  0.5000036649925406   T   T   F
  0.0036882191628098  0.1249010053553632  0.5000036649925406   T   T   F
  0.0041683765041893  0.1874768404014168  0.5000036649925406   T   T   F
  0.0038113340494859  0.2499727865747307  0.5000036649925406   T   T   F
  0.0041845263888877  0.3124602967778454  0.5000036649925406   T   T   F
  0.0041692527780016  0.3750110297617776  0.5000036649925406   T   T   F
  0.0039425417923901  0.4375132295289358  0.5000036649925406   T   T   F
  0.0042111011831480  0.5000152193791892  0.5000036649925406   T   T   F
  0.0040516888542457  0.5625688495807329  0.5000036649925406   T   T   F
  0.0032682897520248  0.6250172272532878  0.5000036649925406   T   T   F
  0.0052847893153971  0.6875105804540567  0.5000036649925406   T   T   F
  0.1688390489758138  0.0937464637309538  0.5000036649925406   T   T   F
  0.1710680879288278  0.1562302392192148  0.5000036649925406   T   T   F
  0.1705768824764652  0.2186766306885123  0.5000036649925406   T   T   F
  0.1706609127797414  0.2812334396052681  0.5000036649925406   T   T   F
  0.1709745376263615  0.3437401937754627  0.5000036649925406   T   T   F
  0.1707000949248569  0.4062413501744326  0.5000036649925406   T   T   F
  0.1707341308905808  0.4687928863450941  0.5000036649925406   T   T   F
  0.1709804093643640  0.5312806720211461  0.5000036649925406   T   T   F
  0.1703283034714535  0.5937810514957563  0.5000036649925406   T   T   F
  0.1705350759813421  0.6563610984599648  0.5000036649925406   T   T   F
  0.1708290582357231  0.7185758131238478  0.5000036649925406   T   T   F
  0.5052856397602246  0.0937401039824363  0.5000036649925406   T   T   F
  0.5032691401968520  0.1562334571832058  0.5000036649925406   T   T   F
  0.5040525392990733  0.2186818348557531  0.5000036649925406   T   T   F
  0.5042119516279756  0.2812354650573040  0.5000036649925406   T   T   F
  0.5039433922372173  0.3437374549075574  0.5000036649925406   T   T   F
  0.5041701032228292  0.4062396546747156  0.5000036649925406   T   T   F
  0.5041853768337150  0.4687903876586479  0.5000036649925406   T   T   F
  0.5038121844943132  0.5312778978617624  0.5000036649925406   T   T   F
  0.5041692269490169  0.5937738440350695  0.5000036649925406   T   T   F
  0.5036890696076373  0.6563496790811298  0.5000036649925406   T   T   F
  0.5026928823132355  0.7185504425986901  0.5000036649925406   T   T   F
  0.6708299086805506  0.0626748713126453  0.5000036649925406   T   T   F
  0.6705359264261693  0.1248895859765284  0.5000036649925406   T   T   F
  0.6703291539162811  0.1874696329407297  0.5000036649925406   T   T   F
  0.6709812598091915  0.2499700124153474  0.5000036649925406   T   T   F
  0.6707349813354080  0.3124577980913992  0.5000036649925406   T   T   F
  0.6707009453696841  0.3750093342620607  0.5000036649925406   T   T   F
  0.6709753880711889  0.4375104906610306  0.5000036649925406   T   T   F
  0.6706617632245688  0.5000172448312252  0.5000036649925406   T   T   F
  0.6705777329212923  0.5625740537479736  0.5000036649925406   T   T   F
  0.6710689383736552  0.6250204452172785  0.5000036649925406   T   T   F
  0.6688398994206411  0.6875042207055394  0.5000036649925406   T   T   F
 -0.0156690535762129  0.7493660130870476  0.0000000000000000   T   T   F
  0.3425558802196758  0.7493001418706847  0.0000000000000000   T   T   F
  0.4843317968686146  0.0318846713494455  0.0000000000000000   T   T   F
  0.8425567306645033  0.0319505425658090  0.0000000000000000   T   T   F
  0.0156690535762129  0.7493660130870476  0.5000036649925406   T   T   F
  0.1574449702251515  0.0319505425658090  0.5000036649925406   T   T   F
  0.5156699040210405  0.0318846713494455  0.5000036649925406   T   T   F
  0.6574458206699790  0.7493001418706847  0.5000036649925406   T   T   F
 
  0.00000000E+00  0.00000000E+00  0.00000000E+00
  0.00000000E+00  0.00000000E+00  0.00000000E+00
  0.00000000E+00  0.00000000E+00  0.00000000E+00
  0.00000000E+00  0.00000000E+00  0.00000000E+00
  0.00000000E+00  0.00000000E+00  0.00000000E+00
  0.00000000E+00  0.00000000E+00  0.00000000E+00
  0.00000000E+00  0.00000000E+00  0.00000000E+00
  0.00000000E+00  0.00000000E+00  0.00000000E+00
  0.00000000E+00  0.00000000E+00  0.00000000E+00
  0.00000000E+00  0.00000000E+00  0.00000000E+00
  0.00000000E+00  0.00000000E+00  0.00000000E+00
  0.00000000E+00  0.00000000E+00  0.00000000E+00
  0.00000000E+00  0.00000000E+00  0.00000000E+00
  0.00000000E+00  0.00000000E+00  0.00000000E+00
  0.00000000E+00  0.00000000E+00  0.00000000E+00
  0.00000000E+00  0.00000000E+00  0.00000000E+00
  0.00000000E+00  0.00000000E+00  0.00000000E+00
  0.00000000E+00  0.00000000E+00  0.00000000E+00
  0.00000000E+00  0.00000000E+00  0.00000000E+00
  0.00000000E+00  0.00000000E+00  0.00000000E+00
  0.00000000E+00  0.00000000E+00  0.00000000E+00
  0.00000000E+00  0.00000000E+00  0.00000000E+00
  0.00000000E+00  0.00000000E+00  0.00000000E+00
  0.00000000E+00  0.00000000E+00  0.00000000E+00
  0.00000000E+00  0.00000000E+00  0.00000000E+00
  0.00000000E+00  0.00000000E+00  0.00000000E+00
  0.00000000E+00  0.00000000E+00  0.00000000E+00
  0.00000000E+00  0.00000000E+00  0.00000000E+00
  0.00000000E+00  0.00000000E+00  0.00000000E+00
  0.00000000E+00  0.00000000E+00  0.00000000E+00
  0.00000000E+00  0.00000000E+00  0.00000000E+00
  0.00000000E+00  0.00000000E+00  0.00000000E+00
  0.00000000E+00  0.00000000E+00  0.00000000E+00
  0.00000000E+00  0.00000000E+00  0.00000000E+00
  0.00000000E+00  0.00000000E+00  0.00000000E+00
  0.00000000E+00  0.00000000E+00  0.00000000E+00
  0.00000000E+00  0.00000000E+00  0.00000000E+00
  0.00000000E+00  0.00000000E+00  0.00000000E+00
  0.00000000E+00  0.00000000E+00  0.00000000E+00
  0.00000000E+00  0.00000000E+00  0.00000000E+00
  0.00000000E+00  0.00000000E+00  0.00000000E+00
  0.00000000E+00  0.00000000E+00  0.00000000E+00
  0.00000000E+00  0.00000000E+00  0.00000000E+00
  0.00000000E+00  0.00000000E+00  0.00000000E+00
  0.00000000E+00  0.00000000E+00  0.00000000E+00
  0.00000000E+00  0.00000000E+00  0.00000000E+00
  0.00000000E+00  0.00000000E+00  0.00000000E+00
  0.00000000E+00  0.00000000E+00  0.00000000E+00
  0.00000000E+00  0.00000000E+00  0.00000000E+00
  0.00000000E+00  0.00000000E+00  0.00000000E+00
  0.00000000E+00  0.00000000E+00  0.00000000E+00
  0.00000000E+00  0.00000000E+00  0.00000000E+00
  0.00000000E+00  0.00000000E+00  0.00000000E+00
  0.00000000E+00  0.00000000E+00  0.00000000E+00
  0.00000000E+00  0.00000000E+00  0.00000000E+00
  0.00000000E+00  0.00000000E+00  0.00000000E+00
  0.00000000E+00  0.00000000E+00  0.00000000E+00
  0.00000000E+00  0.00000000E+00  0.00000000E+00
  0.00000000E+00  0.00000000E+00  0.00000000E+00
  0.00000000E+00  0.00000000E+00  0.00000000E+00
  0.00000000E+00  0.00000000E+00  0.00000000E+00
  0.00000000E+00  0.00000000E+00  0.00000000E+00
  0.00000000E+00  0.00000000E+00  0.00000000E+00
  0.00000000E+00  0.00000000E+00  0.00000000E+00
  0.00000000E+00  0.00000000E+00  0.00000000E+00
  0.00000000E+00  0.00000000E+00  0.00000000E+00
  0.00000000E+00  0.00000000E+00  0.00000000E+00
  0.00000000E+00  0.00000000E+00  0.00000000E+00
  0.00000000E+00  0.00000000E+00  0.00000000E+00
  0.00000000E+00  0.00000000E+00  0.00000000E+00
  0.00000000E+00  0.00000000E+00  0.00000000E+00
  0.00000000E+00  0.00000000E+00  0.00000000E+00
  0.00000000E+00  0.00000000E+00  0.00000000E+00
  0.00000000E+00  0.00000000E+00  0.00000000E+00
  0.00000000E+00  0.00000000E+00  0.00000000E+00
  0.00000000E+00  0.00000000E+00  0.00000000E+00
  0.00000000E+00  0.00000000E+00  0.00000000E+00
  0.00000000E+00  0.00000000E+00  0.00000000E+00
  0.00000000E+00  0.00000000E+00  0.00000000E+00
  0.00000000E+00  0.00000000E+00  0.00000000E+00
  0.00000000E+00  0.00000000E+00  0.00000000E+00
  0.00000000E+00  0.00000000E+00  0.00000000E+00
  0.00000000E+00  0.00000000E+00  0.00000000E+00
  0.00000000E+00  0.00000000E+00  0.00000000E+00
  0.00000000E+00  0.00000000E+00  0.00000000E+00
  0.00000000E+00  0.00000000E+00  0.00000000E+00
  0.00000000E+00  0.00000000E+00  0.00000000E+00
  0.00000000E+00  0.00000000E+00  0.00000000E+00
  0.00000000E+00  0.00000000E+00  0.00000000E+00
  0.00000000E+00  0.00000000E+00  0.00000000E+00
  0.00000000E+00  0.00000000E+00  0.00000000E+00
  0.00000000E+00  0.00000000E+00  0.00000000E+00
  0.00000000E+00  0.00000000E+00  0.00000000E+00
  0.00000000E+00  0.00000000E+00  0.00000000E+00
  0.00000000E+00  0.00000000E+00  0.00000000E+00
  0.00000000E+00  0.00000000E+00  0.00000000E+00
