# Bulk supercell                        
   1.00000000000000     
     4.2662000655999996    0.0000000000000000    0.0000000000000000
     0.0000000000000000   39.4095001220999990    0.0000000000000000
    -1.4220647142000000    0.0000000000000000    3.1810996981000002
   C    O 
    44     4
Selective dynamics
Direct
  0.9997263518788557  0.0000078275345103  0.0000000000000000   T   T   F
  0.3332472584069066  0.0000078942799249  0.0000000000000000   T   T   F
  0.4997263518788557  0.0312231714654914  0.0000000000000000   T   T   F
  0.8332472584069066  0.0312231047200768  0.0000000000000000   T   T   F
  0.9998985831255993  0.0624613291800031  0.0000000000000000   T   T   F
  0.3330118285198367  0.0624590739500164  0.0000000000000000   T   T   F
  0.4996682292842110  0.0936986137723181  0.0000000000000000   T   T   F
  0.8332492695634670  0.0937003324585746  0.0000000000000000   T   T   F
  0.9997269235255359  0.1249243583008663  0.0000000000000000   T   T   F
  0.3332652622568233  0.1249262949244851  0.0000000000000000   T   T   F
  0.4999385505118141  0.1561745122047213  0.0000000000000000   T   T   F
  0.8331297216598443  0.1561736039020900  0.0000000000000000   T   T   F
  0.9996815704165556  0.1874180193790096  0.0000000000000000   T   T   F
  0.3334572864150900  0.1874214767165867  0.0000000000000000   T   T   F
  0.4997650836798826  0.2186347331624248  0.0000000000000000   T   T   F
  0.8334033734539190  0.2186321262223174  0.0000000000000000   T   T   F
  0.9998296029378153  0.2499008195680972  0.0000000000000000   T   T   F
  0.3333366766005810  0.2499018091765137  0.0000000000000000   T   T   F
  0.4992416899505159  0.2811707463004396  0.0000000000000000   T   T   F
  0.8339041678281589  0.2811693352113096  0.0000000000000000   T   T   F
  0.0021647315594322  0.3121496355837436  0.0000000000000000   T   T   F
  0.3309140095364853  0.3121484322536290  0.0000000000000000   T   T   F
  0.5001186625047822  0.3432915321858019  0.0000000000000000   T   T   F
  0.8328769837052974  0.3432922234515132  0.0000000000000000   T   T   F
  0.0001186625047822  0.6879394538141952  0.0000000000000000   T   T   F
  0.3328769837052974  0.6879387625484839  0.0000000000000000   T   T   F
  0.5021647315594322  0.7190803674162538  0.0000000000000000   T   T   F
  0.8309140095364853  0.7190815707463685  0.0000000000000000   T   T   F
  0.9992416899505159  0.7500592866995603  0.0000000000000000   T   T   F
  0.3339041678281589  0.7500606977886903  0.0000000000000000   T   T   F
  0.4998296029378153  0.7813301664318999  0.0000000000000000   T   T   F
  0.8333366766005810  0.7813291768234834  0.0000000000000000   T   T   F
  0.9997650836798826  0.8125952548375750  0.0000000000000000   T   T   F
  0.3334033734539190  0.8125978617776823  0.0000000000000000   T   T   F
  0.4996815704165556  0.8438119826209913  0.0000000000000000   T   T   F
  0.8334572864150900  0.8438085252834142  0.0000000000000000   T   T   F
  0.9999385505118141  0.8750555057952738  0.0000000000000000   T   T   F
  0.3331297216598443  0.8750564140979051  0.0000000000000000   T   T   F
  0.4997269235255359  0.9063056586991394  0.0000000000000000   T   T   F
  0.8332652622568233  0.9063037220755206  0.0000000000000000   T   T   F
  0.9996682292842110  0.9375323642276783  0.0000000000000000   T   T   F
  0.3332492695634670  0.9375306455414218  0.0000000000000000   T   T   F
  0.4998985831255993  0.9687696868199964  0.0000000000000000   T   T   F
  0.8330118285198367  0.9687719420499832  0.0000000000000000   T   T   F
  0.9288330360643045  0.3741770346602920  0.0000000000000000   T   T   F
  0.4040870946142761  0.3741736368170905  0.0000000000000000   T   T   F
  0.4288330950643058  0.6570539513397051  0.0000000000000000   T   T   F
  0.9040881076142711  0.6570573491829066  0.0000000000000000   T   T   F
 
  0.00000000E+00  0.00000000E+00  0.00000000E+00
  0.00000000E+00  0.00000000E+00  0.00000000E+00
  0.00000000E+00  0.00000000E+00  0.00000000E+00
  0.00000000E+00  0.00000000E+00  0.00000000E+00
  0.00000000E+00  0.00000000E+00  0.00000000E+00
  0.00000000E+00  0.00000000E+00  0.00000000E+00
  0.00000000E+00  0.00000000E+00  0.00000000E+00
  0.00000000E+00  0.00000000E+00  0.00000000E+00
  0.00000000E+00  0.00000000E+00  0.00000000E+00
  0.00000000E+00  0.00000000E+00  0.00000000E+00
  0.00000000E+00  0.00000000E+00  0.00000000E+00
  0.00000000E+00  0.00000000E+00  0.00000000E+00
  0.00000000E+00  0.00000000E+00  0.00000000E+00
  0.00000000E+00  0.00000000E+00  0.00000000E+00
  0.00000000E+00  0.00000000E+00  0.00000000E+00
  0.00000000E+00  0.00000000E+00  0.00000000E+00
  0.00000000E+00  0.00000000E+00  0.00000000E+00
  0.00000000E+00  0.00000000E+00  0.00000000E+00
  0.00000000E+00  0.00000000E+00  0.00000000E+00
  0.00000000E+00  0.00000000E+00  0.00000000E+00
  0.00000000E+00  0.00000000E+00  0.00000000E+00
  0.00000000E+00  0.00000000E+00  0.00000000E+00
  0.00000000E+00  0.00000000E+00  0.00000000E+00
  0.00000000E+00  0.00000000E+00  0.00000000E+00
  0.00000000E+00  0.00000000E+00  0.00000000E+00
  0.00000000E+00  0.00000000E+00  0.00000000E+00
  0.00000000E+00  0.00000000E+00  0.00000000E+00
  0.00000000E+00  0.00000000E+00  0.00000000E+00
  0.00000000E+00  0.00000000E+00  0.00000000E+00
  0.00000000E+00  0.00000000E+00  0.00000000E+00
  0.00000000E+00  0.00000000E+00  0.00000000E+00
  0.00000000E+00  0.00000000E+00  0.00000000E+00
  0.00000000E+00  0.00000000E+00  0.00000000E+00
  0.00000000E+00  0.00000000E+00  0.00000000E+00
  0.00000000E+00  0.00000000E+00  0.00000000E+00
  0.00000000E+00  0.00000000E+00  0.00000000E+00
  0.00000000E+00  0.00000000E+00  0.00000000E+00
  0.00000000E+00  0.00000000E+00  0.00000000E+00
  0.00000000E+00  0.00000000E+00  0.00000000E+00
  0.00000000E+00  0.00000000E+00  0.00000000E+00
  0.00000000E+00  0.00000000E+00  0.00000000E+00
  0.00000000E+00  0.00000000E+00  0.00000000E+00
  0.00000000E+00  0.00000000E+00  0.00000000E+00
  0.00000000E+00  0.00000000E+00  0.00000000E+00
  0.00000000E+00  0.00000000E+00  0.00000000E+00
  0.00000000E+00  0.00000000E+00  0.00000000E+00
  0.00000000E+00  0.00000000E+00  0.00000000E+00
  0.00000000E+00  0.00000000E+00  0.00000000E+00
