general:
System = metal 
ISPIN=2 # Spin polarisation on

ISTART=0
ISIF=0
IBRION=2 # Conj gradient opimtisation
NSW=3
EDIFFG = -0.01

ENCUT = 450 eV
PREC= Normal
ISMEAR = 0; SIGMA = 0.05  #-5 for accurate total energy and DOS 0 for large cell 1 for metal
LREAL=A
LWAVE = F  #.True.
VOSKOWN =0    # 0 for PBE 1 for PW91
NELM=120
#AMIX = 0.2
#BMIX = 0.0001
NSIM=4
IALGO=48
LCHARG = T
ISYM = 2 # Symmetry on 
NCORE=10

IVDW=10
